001 001 002 001 002 002 002 002 003 002 001 004 003 003 002 003 005 004 004 003 002 002 002 004 003 003 006 003 003 004 004
000 001 001 002 001 002 002 003 003 003 001 002 002 003 003 003 005 003 003 003 002 002 002 003 003 002 003 003 003 004 003
000 000 001 002 002 002 002 002 003 003 003 002 003 003 003 003 003 003 003 003 004 002 001 001 001 002 002 003 003 004 004
000 000 001 001 002 001 001 001 002 002 003 003 002 002 002 003 003 003 002 002 002 001 001 001 001 003 002 003 003 004 004
000 000 001 000 001 000 001 003 002 001 002 002 002 003 002 001 001 002 001 000 001 001 001 002 002 003 004 004 003 004 004
000 000 000 000 000 000 001 001 001 001 002 002 002 002 002 001 001 001 001 000 000 001 001 002 002 005 004 004 003 004 005
000 000 000 000 000 000 000 001 001 001 001 001 001 001 001 001 001 001 000 000 001 001 001 002 002 003 004 -99 -99 -99 -99
000 000 000 000 000 000 000 000 000 000 000 000 001 000 000 000 001 000 000 001 001 001 001 002 002 002 003 -99 -99 002 002
000 000 000 000 000 000 000 000 000 000 000 000 000 000 000 000 001 000 000 000 001 001 001 002 001 001 002 002 -99 001 002
000 000 000 000 000 000 000 000 000 000 000 000 000 000 000 000 000 000 000 000 000 001 001 002 001 000 001 001 -99 000 000
000 000 000 000 000 -99 000 000 000 000 000 000 000 000 000 000 000 000 000 000 000 000 001 001 001 000 000 001 -99 000 000
000 000 000 000 000 000 -99 000 000 000 000 000 000 000 000 000 000 000 000 000 000 000 000 000 001 -99 000 000 000 000 000
000 000 000 000 000 000 000 000 -99 000 000 000 000 000 000 000 000 000 000 000 000 000 -99 000 000 000 000 000 000 -99 000
000 000 000 000 000 000 000 -99 -99 -99 000 000 000 000 000 000 000 000 000 000 000 000 -99 000 000 000 -99 -99 -99 -99 -99
000 000 000 000 000 000 000 -99 -99 -99 -99 000 000 000 000 000 000 000 000 000 000 000 -99 000 000 000 000 -99 -99 -99 -99
000 -99 000 000 000 000 000 -99 -99 -99 -99 -99 -99 000 -99 000 000 -99 000 -99 -99 000 -99 000 000 000 000 -99 -99 000 -99
000 -99 000 -99 000 000 000 000 -99 -99 -99 -99 -99 -99 -99 -99 -99 -99 -99 -99 -99 000 000 -99 000 000 -99 -99 -99 000 -99
000 000 000 -99 000 000 000 000 000 -99 -99 -99 -99 -99 -99 -99 000 -99 -99 -99 -99 000 000 -99 -99 -99 -99 -99 -99 000 -99
000 000 000 000 -99 -99 000 000 000 -99 -99 -99 -99 -99 -99 -99 000 000 -99 -99 -99 000 000 -99 -99 -99 -99 -99 -99 000 000
000 000 000 000 -99 -99 000 000 000 -99 000 000 -99 000 000 000 000 000 -99 -99 -99 000 000 -99 -99 -99 -99 -99 -99 -99 -99
000 000 000 000 000 -99 000 000 000 000 -99 -99 -99 -99 000 000 000 000 000 -99 -99 000 000 -99 -99 -99 -99 -99 -99 -99 -99
000 000 000 000 000 -99 -99 000 000 000 -99 -99 -99 000 000 000 000 000 -99 -99 -99 000 000 -99 -99 -99 -99 -99 -99 -99 -99
000 000 000 000 000 000 000 000 000 000 -99 -99 -99 000 000 000 000 000 000 -99 -99 000 000 -99 -99 -99 -99 -99 -99 -99 -99
000 000 000 000 000 000 000 000 000 -99 -99 -99 000 000 000 000 000 000 000 000 000 000 000 -99 -99 -99 -99 -99 -99 -99 -99
000 000 000 000 000 000 000 000 000 000 000 -99 000 000 000 000 000 000 000 000 000 -99 -99 -99 -99 -99 -99 -99 -99 -99 -99
000 000 000 000 000 000 000 000 000 000 -99 -99 -99 000 000 000 000 000 000 000 000 000 -99 -99 -99 -99 -99 -99 -99 -99 000
000 000 000 000 000 000 000 000 000 000 -99 -99 -99 000 000 000 000 000 000 000 000 000 -99 -99 -99 -99 -99 -99 -99 -99 000
000 000 000 000 000 000 000 000 000 -99 -99 -99 -99 000 000 000 000 000 000 000 000 000 -99 -99 -99 -99 -99 -99 -99 -99 000
000 000 000 000 000 000 000 000 000 -99 -99 -99 -99 000 000 000 000 000 000 000 000 000 -99 -99 -99 -99 -99 -99 -99 -99 000
000 000 000 000 -99 000 000 000 -99 -99 -99 -99 -99 000 000 000 000 000 -99 -99 000 000 -99 -99 -99 -99 -99 -99 -99 -99 000
-99 000 000 -99 000 000 000 -99 -99 -99 -99 -99 -99 000 000 000 000 000 000 000 000 000 -99 000 000 -99 -99 -99 -99 -99 000
-99 000 -99 -99 -99 -99 000 000 000 -99 -99 -99 -99 000 000 -99 000 000 000 000 000 000 000 000 000 -99 -99 -99 -99 -99 000
000 000 000 -99 -99 -99 -99 000 000 000 000 -99 000 000 000 000 000 000 000 -99 -99 000 000 000 000 -99 -99 000 000 000 000
000 000 000 000 -99 -99 -99 000 000 000 000 -99 000 000 -99 -99 000 000 000 -99 -99 000 000 000 000 000 000 000 000 000 000
000 000 000 000 -99 -99 000 000 000 000 000 -99 000 000 000 -99 -99 -99 000 000 -99 000 000 000 000 000 000 000 000 000 000
000 000 000 000 000 000 000 000 000 000 -99 000 000 000 000 000 000 -99 -99 000 -99 000 000 -99 000 000 000 000 000 000 -99
000 000 000 000 000 000 000 000 -99 -99 -99 000 000 000 -99 000 000 -99 000 000 000 000 000 -99 000 000 000 000 -99 -99 -99
000 000 000 000 -99 000 000 000 -99 -99 -99 000 000 000 000 000 -99 -99 -99 000 000 000 000 000 000 000 000 -99 -99 -99 -99
000 000 000 000 -99 000 000 000 000 -99 -99 -99 000 000 -99 000 000 000 000 000 000 000 000 000 000 -99 -99 -99 -99 -99 -99
000 000 000 000 -99 -99 -99 000 -99 000 -99 -99 000 000 000 000 000 000 000 000 -99 -99 000 000 -99 000 000 -99 -99 -99 -99
000 000 000 000 -99 000 -99 -99 -99 000 000 -99 000 000 000 000 000 000 -99 -99 -99 -99 000 000 -99 000 000 -99 -99 -99 -99
000 000 -99 -99 -99 000 000 000 000 000 000 000 000 000 000 000 -99 -99 000 -99 -99 -99 000 000 000 000 -99 -99 -99 -99 -99
000 -99 -99 -99 000 000 000 -99 000 000 000 000 000 000 -99 000 000 000 000 -99 -99 000 -99 000 000 000 -99 -99 -99 -99 -99
-99 -99 -99 -99 -99 000 -99 -99 000 000 000 000 000 000 -99 000 000 000 -99 000 000 -99 -99 -99 000 000 -99 -99 -99 -99 -99
000 -99 -99 -99 000 -99 -99 -99 000 000 000 000 000 000 -99 000 000 -99 000 000 000 -99 -99 000 000 -99 000 000 -99 -99 -99
000 -99 -99 -99 000 -99 -99 -99 000 000 000 000 000 -99 -99 -99 -99 -99 000 000 -99 -99 -99 -99 000 -99 000 000 -99 -99 -99
-99 -99 -99 -99 -99 -99 -99 -99 000 000 000 000 000 -99 -99 -99 -99 -99 000 000 -99 -99 -99 -99 000 -99 000 -99 -99 -99 -99
-99 -99 -99 -99 -99 -99 -99 -99 000 000 000 000 -99 -99 -99 -99 -99 -99 -99 -99 -99 -99 -99 000 000 -99 -99 -99 000 -99 -99
-99 -99 -99 -99 -99 -99 -99 -99 -99 000 -99 -99 -99 -99 -99 -99 -99 -99 -99 -99 -99 -99 000 -99 -99 -99 000 000 000 -99 -99
-99 -99 -99 -99 -99 -99 -99 -99 000 000 -99 -99 -99 -99 -99 -99 -99 -99 -99 -99 -99 000 -99 -99 -99 -99 000 000 -99 -99 -99
-99 -99 -99 -99 -99 -99 -99 000 000 000 -99 -99 -99 -99 -99 -99 -99 -99 000 000 -99 000 -99 -99 -99 000 -99 -99 -99 -99 -99
-99 -99 -99 -99 -99 -99 -99 000 000 -99 000 000 -99 -99 -99 -99 -99 -99 000 000 -99 -99 -99 -99 -99 000 -99 -99 -99 -99 -99
-99 -99 -99 -99 -99 -99 -99 -99 -99 -99 -99 -99 -99 -99 -99 -99 -99 000 000 000 -99 -99 -99 -99 -99 -99 -99 -99 -99 -99 -99
-99 -99 -99 -99 -99 -99 -99 -99 -99 -99 -99 -99 -99 -99 -99 -99 -99 000 000 -99 -99 -99 -99 -99 -99 -99 -99 -99 -99 -99 -99
-99 -99 -99 -99 -99 -99 -99 -99 -99 -99 -99 -99 -99 -99 -99 000 000 000 -99 -99 -99 -99 -99 -99 -99 -99 -99 -99 -99 -99 -99
